NAME : mr34
COMMENT : 34-city problem (DISC)
TYPE : TSP
DIMENSION : 34
EDGE_WEIGHT_TYPE : EUC_2D
NODE_COORD_SECTION
1 4 84
2 79 50
3 10 83
4 64 94
5 2 80
6 94 47
7 43 36
8 26 11
9 19 99
10 42 16
11 2 28
12 65 70
13 87 65
14 61 23
15 81 81
16 83 52
17 28 8
18 84 4
19 29 57
20 14 15
21 72 25
22 48 4
23 56 66
24 39 86
25 95 20
26 9 81
27 92 8
28 16 64
29 45 84
30 22 30
31 18 48
32 52 18
33 90 96
34 93 5
EOF
